Route #1: 32 33 53 73 95 24
Route #2: 20 41 22 15
Route #3: 92 9 86
Route #4: 30 85 11 79
Route #5: 40 88 67 44
Route #6: 75 93
Route #7: 28 42 78 65 25
Route #8: 80 94 56 21
Route #9: 69 16 55 76
Route #10: 18 10 39
Route #11: 89 98 99 62 71
Route #12: 82 60 59
Route #13: 83 51 81
Route #14: 52 91 50
Route #15: 5 12 58
Route #16: 19 97 27
Route #17: 38 47 26 48 96 64 34
Route #18: 14 49 6 37 87
Route #19: 4 13 74
Route #20: 31 46 35
Route #21: 23 61 100
Route #22: 66 84 90 68
Route #23: 57 72 36 29 43 45 2 7
Route #24: 3 77 63
Route #25: 1 70 54
Route #26: 17 8
Cost 27591.0000
Time 16.0002